Rodando pra 1h

Optimize a model with 250039 rows, 374280 columns and 4359119 nonzeros
Coefficient statistics:
  Matrix range    [1e+00, 1e+04]
  Objective range [1e+00, 1e+00]
  Bounds range    [1e+00, 1e+04]
  RHS range       [1e+00, 1e+04]
Presolve removed 4 rows and 4 columns (presolve time = 5s) ...
Presolve removed 4 rows and 4 columns (presolve time = 10s) ...
Presolve removed 4 rows and 4 columns (presolve time = 16s) ...
Presolve removed 4 rows and 4 columns (presolve time = 20s) ...
Presolve removed 4 rows and 4 columns (presolve time = 27s) ...
Presolve removed 4 rows and 4 columns (presolve time = 31s) ...
Presolve removed 4 rows and 4 columns
Presolve time: 31.36s
Presolved: 250035 rows, 374276 columns, 4359101 nonzeros
Variable types: 249500 continuous, 124776 integer (124775 binary)
Optimize a model with 250035 rows, 374276 columns and 4359101 nonzeros
Coefficient statistics:
  Matrix range    [1e+00, 1e+04]
  Objective range [1e+00, 1e+00]
  Bounds range    [1e+00, 1e+04]
  RHS range       [1e+00, 2e+04]
Presolved: 250035 rows, 374276 columns, 4359101 nonzeros


Root simplex log...

Iteration    Objective       Primal Inf.    Dual Inf.      Time
       0    0.0000000e+00   1.504975e+03   0.000000e+00     44s
    1017    0.0000000e+00   0.000000e+00   0.000000e+00     45s

Root relaxation: objective 0.000000e+00, 1017 iterations, 4.29 seconds

    Nodes    |    Current Node    |     Objective Bounds      |     Work
 Expl Unexpl |  Obj  Depth IntInf | Incumbent    BestBd   Gap | It/Node Time

     0     0    0.00000    0  511          -    0.00000      -     - 1986s
     0     0    0.00000    0  376          -    0.00000      -     - 2272s
     0     0    0.00000    0  298          -    0.00000      -     - 2289s
     0     0    0.00000    0  527          -    0.00000      -     - 2408s
     0     0    0.00000    0  507          -    0.00000      -     - 2452s
     0     0    0.00000    0  537          -    0.00000      -     - 3600s

Cutting planes:
  MIR: 15
  Flow cover: 186
  Flow path: 197

Explored 0 nodes (429658 simplex iterations) in 3600.14 seconds
Thread count was 1 (of 4 available processors)

Time limit reached
Best objective -, best bound 0.000000000000e+00, gap -
Tempo: 3594.45 segundos

Error code = 10004
Var::get
